0 0 0 0
0 1 0 0
0 2 0 0
0 3 0 0
0 4 0 3
0 5 2 3
0 6 0 4
0 7 1 10
0 8 0 8
0 9 2 10
0 10 0 8
0 11 0 13
0 12 0 13
0 13 2 13
0 14 0 14
0 15 0 18
0 16 1 8
0 17 0 19
0 18 2 8
0 19 2 15
0 20 2 25
0 21 0 15
0 22 0 15
0 23 2 19
0 24 1 29
0 25 0 23
0 26 0 29
0 27 0 33
0 28 0 35
0 29 0 36
0 30 2 28
0 31 0 38
